% Logging successfully configured
%%%mzn-stat: initTime=0.04203433
%%%mzn-stat: objective=988
%%%mzn-stat: nodes=614
%%%mzn-stat: restarts=0
%%%mzn-stat: peakDepth=75
%%%mzn-stat: solveTime=0.008835757
%%%mzn-stat: variables=196
%%%mzn-stat: propagators=119
%%%mzn-stat: failures=235
%%%mzn-stat: propagations=7227
%%%mzn-stat: nogoods=235
%%%mzn-stat: numAtomicConstraintsPropagated=0
%%%mzn-stat: allDifferentNumber1TotalHallSetSize=736
%%%mzn-stat: allDifferentNumber1NumberOfConflicts=207
%%%mzn-stat: allDifferentNumber1MaxHallSetSize=18
%%%mzn-stat: allDifferentNumber1PropagationsTotal=1170
%%%mzn-stat: allDifferentNumber1PropagationsThatFoundConflict=207
%%%mzn-stat: circuitNumber2PropagationsThatFoundConflict=23
%%%mzn-stat: circuitNumber2TotalFixedEdgesAtConflict=290
%%%mzn-stat: circuitNumber2NumberOfConflicts=23
%%%mzn-stat: circuitNumber2PropagationsThatPruned=168
%%%mzn-stat: circuitNumber2PropagationsTotal=680
%%%mzn-stat: AverageConflictSize=3.5446808510638297
%%%mzn-stat: NumUnitNogoodsLearned=2
%%%mzn-stat: AverageLearnedNogoodLength=3.217021276595745
%%%mzn-stat: AverageBacktrackAmount=0
%%%mzn-stat: AverageLbd=2.9063829787234043
%%%mzn-stat: 2AutonomousSearchNumBackupCalled=64
%%%mzn-stat: 2AutonomousSearchNumPredicatesRemoved=0
%%%mzn-stat: 2AutonomousSearchNumCalls=65
%%%mzn-stat: 2AutonomousSearchNumPredicatesAdded=465
%%%mzn-stat: 2AutonomousSearchAverageSizeOfHeap=7.153846153846154
%%%mzn-stat: 2AutonomousSearchNumAssignedPredicatesEncountered=465
%%%mzn-stat-end
maxleg = 988;
succ = array1d(1..20,[18, 3, 11, 9, 6, 8, 5, 12, 19, 2, 14, 17, 20, 16, 4, 15, 10, 13, 1, 7]);
% time elapsed: 6.12 s
----------
==========
% time elapsed: 6.12 s
%%%mzn-stat: initTime=0.04203433
%%%mzn-stat: objective=988
%%%mzn-stat: nodes=635
%%%mzn-stat: restarts=0
%%%mzn-stat: peakDepth=75
%%%mzn-stat: solveTime=0.009608808
%%%mzn-stat: variables=196
%%%mzn-stat: propagators=119
%%%mzn-stat: failures=257
%%%mzn-stat: propagations=7638
%%%mzn-stat: nogoods=257
%%%mzn-stat: numAtomicConstraintsPropagated=0
%%%mzn-stat: allDifferentNumber1TotalHallSetSize=904
%%%mzn-stat: allDifferentNumber1NumberOfConflicts=225
%%%mzn-stat: allDifferentNumber1MaxHallSetSize=18
%%%mzn-stat: allDifferentNumber1PropagationsTotal=1231
%%%mzn-stat: allDifferentNumber1PropagationsThatFoundConflict=225
%%%mzn-stat: circuitNumber2PropagationsThatFoundConflict=23
%%%mzn-stat: circuitNumber2TotalFixedEdgesAtConflict=290
%%%mzn-stat: circuitNumber2NumberOfConflicts=23
%%%mzn-stat: circuitNumber2PropagationsThatPruned=176
%%%mzn-stat: circuitNumber2PropagationsTotal=702
%%%mzn-stat: AverageConflictSize=3.5992217898832686
%%%mzn-stat: NumUnitNogoodsLearned=3
%%%mzn-stat: AverageLearnedNogoodLength=3.237354085603113
%%%mzn-stat: AverageBacktrackAmount=0
%%%mzn-stat: AverageLbd=2.88715953307393
%%%mzn-stat: 2AutonomousSearchNumBackupCalled=64
%%%mzn-stat: 2AutonomousSearchNumPredicatesRemoved=0
%%%mzn-stat: 2AutonomousSearchNumCalls=65
%%%mzn-stat: 2AutonomousSearchNumPredicatesAdded=618
%%%mzn-stat: 2AutonomousSearchAverageSizeOfHeap=7.153846153846154
%%%mzn-stat: 2AutonomousSearchNumAssignedPredicatesEncountered=465
%%%mzn-stat-end
